SDVRP instances/custom_instances/p01_23_splitx10_0.vrp
NAME:p01_23_splitx10_
BEST_KNOWN: 0
COMMENT: 0
DIMENSION: 250
CAPACITY: 1600
EDGE_WEIGHT_FORMAT: FUNCTION
EDGE_WEIGHT_TYPE: EXACT_2D
NODE_COORD_SECTION
1 0.00000 0.00000
2 -41 -37
3 -41 -37
4 -41 -37
5 -41 -37
6 -41 -37
7 -41 -37
8 -43 9
9 -43 9
10 -43 9
11 -43 9
12 -43 9
13 -43 9
14 10 23
15 10 23
16 10 23
17 10 23
18 10 23
19 10 23
20 10 23
21 23 -33
22 23 -33
23 23 -33
24 23 -33
25 23 -33
26 23 -33
27 13 -50
28 13 -50
29 13 -50
30 13 -50
31 13 -50
32 13 -50
33 13 -50
34 -39 -25
35 -39 -25
36 -39 -25
37 -39 -25
38 25 29
39 25 29
40 25 29
41 25 29
42 25 29
43 3 1
44 3 1
45 3 1
46 3 1
47 3 1
48 -23 41
49 -23 41
50 -23 41
51 -23 41
52 -23 41
53 -23 41
54 -43 13
55 -43 13
56 -43 13
57 -43 13
58 -43 13
59 -43 13
60 -43 13
61 46 32
62 46 32
63 46 32
64 46 32
65 46 32
66 46 32
67 46 32
68 44 -44
69 44 -44
70 44 -44
71 44 -44
72 44 -44
73 -7 -14
74 -7 -14
75 -7 -14
76 -7 -14
77 45 8
78 45 8
79 -22 -44
80 -22 -44
81 -22 -44
82 -35 37
83 -35 37
84 -35 37
85 -35 37
86 -35 37
87 -35 37
88 -35 37
89 28 -30
90 28 -30
91 28 -30
92 28 -30
93 28 -30
94 -34 34
95 -34 34
96 -34 34
97 -34 34
98 35 -39
99 35 -39
100 35 -39
101 35 -39
102 -3 26
103 -3 26
104 -3 26
105 -3 26
106 -3 26
107 43 -20
108 43 -20
109 43 -20
110 43 -20
111 45 -34
112 45 -34
113 45 -34
114 44 -44
115 44 -44
116 44 -44
117 44 -44
118 -33 -11
119 -33 -11
120 -33 -11
121 -33 -11
122 -33 -11
123 -33 -11
124 -33 -11
125 40 14
126 40 14
127 40 14
128 40 14
129 22 -5
130 22 -5
131 22 -5
132 -2 -43
133 -2 -43
134 -2 -43
135 -2 -43
136 49 30
137 49 30
138 49 30
139 49 30
140 49 30
141 -34 1
142 -34 1
143 -34 1
144 -39 -18
145 -39 -18
146 -39 -18
147 -39 -18
148 -39 -18
149 -48 7
150 -48 7
151 -48 7
152 -48 7
153 -32 23
154 -32 23
155 -32 23
156 -32 23
157 -32 23
158 -32 23
159 -18 -34
160 -18 -34
161 -18 -34
162 -18 -34
163 -18 -34
164 -18 -34
165 15 25
166 15 25
167 15 25
168 15 25
169 15 25
170 9 -19
171 9 -19
172 9 -19
173 9 -19
174 9 -19
175 9 -19
176 -9 -45
177 -9 -45
178 -9 -45
179 -9 -45
180 -34 -34
181 -34 -34
182 -34 -34
183 -34 -34
184 -34 -34
185 -34 -34
186 37 30
187 37 30
188 37 30
189 37 30
190 37 30
191 -11 -15
192 -11 -15
193 -11 -15
194 -11 -15
195 -7 39
196 -7 39
197 -7 39
198 -7 39
199 -7 39
200 44 -12
201 44 -12
202 46 12
203 46 12
204 46 12
205 46 12
206 46 12
207 46 12
208 46 12
209 46 12
210 28 0
211 28 0
212 28 0
213 28 0
214 42 37
215 42 37
216 42 37
217 42 37
218 42 37
219 42 37
220 42 37
221 33 -4
222 33 -4
223 -47 13
224 -47 13
225 -47 13
226 -47 13
227 -47 13
228 -47 13
229 -47 13
230 19 -26
231 19 -26
232 19 -26
233 19 -26
234 19 -26
235 19 -26
236 -27 32
237 -27 32
238 -27 32
239 -27 32
240 -27 32
241 21 33
242 21 33
243 21 33
244 21 33
245 0 2
246 0 2
247 0 2
248 0 2
249 0 2
250 0 2
DEMAND_SECTION
1 0
2 160
3 80
4 16
5 16
6 16
7 2
8 320
9 80
10 16
11 16
12 16
13 12
14 320
15 320
16 80
17 16
18 16
19 16
20 12
21 320
22 16
23 16
24 16
25 16
26 6
27 320
28 320
29 80
30 16
31 16
32 16
33 2
34 320
35 320
36 80
37 10
38 320
39 160
40 80
41 16
42 4
43 320
44 16
45 16
46 16
47 2
48 320
49 80
50 16
51 16
52 16
53 2
54 320
55 160
56 16
57 16
58 16
59 16
60 6
61 320
62 320
63 80
64 16
65 16
66 16
67 2
68 320
69 16
70 16
71 16
72 12
73 320
74 160
75 80
76 10
77 160
78 80
79 320
80 16
81 4
82 320
83 80
84 16
85 16
86 16
87 16
88 6
89 320
90 16
91 16
92 16
93 2
94 320
95 16
96 16
97 8
98 160
99 16
100 16
101 8
102 320
103 320
104 16
105 16
106 8
107 320
108 80
109 16
110 4
111 320
112 16
113 4
114 160
115 16
116 16
117 8
118 320
119 80
120 16
121 16
122 16
123 16
124 6
125 160
126 80
127 16
128 14
129 320
130 16
131 14
132 320
133 160
134 16
135 4
136 320
137 160
138 16
139 16
140 8
141 320
142 160
143 10
144 320
145 16
146 16
147 16
148 12
149 320
150 160
151 80
152 10
153 320
154 80
155 16
156 16
157 16
158 12
159 320
160 160
161 16
162 16
163 16
164 12
165 320
166 160
167 16
168 16
169 8
170 160
171 80
172 16
173 16
174 16
175 2
176 320
177 160
178 16
179 14
180 160
181 80
182 16
183 16
184 16
185 12
186 160
187 16
188 16
189 16
190 12
191 320
192 80
193 16
194 4
195 320
196 160
197 16
198 16
199 8
200 320
201 80
202 320
203 160
204 80
205 16
206 16
207 16
208 16
209 6
210 320
211 160
212 16
213 14
214 320
215 80
216 16
217 16
218 16
219 16
220 6
221 320
222 80
223 320
224 320
225 16
226 16
227 16
228 16
229 6
230 320
231 160
232 16
233 16
234 16
235 2
236 320
237 320
238 16
239 16
240 8
241 160
242 80
243 16
244 4
245 320
246 80
247 16
248 16
249 16
250 12
DEPOT_SECTION
1
-1
EOF