SDVRP instances/custom_instances/p01_23_splitx10_0.sol
249 -7 151 148 150 149 228 224 226 222 225 227 223 -35 34 36 33 147 146 144 145 143 121 122 123 119 118 120 117 -40 39 38 41 37 217 215 214 213 218 219 216 242 243 240 241 165 167 -44 42 210 211 212 209 220 221 130 129 128 -46 43 45 127 125 124 126 206 201 203 202 207 204 205 208 77 76 200 199 -48 50 49 51 47 52 196 197 195 198 194 102 -74 72 75 73 162 160 161 158 159 163 190 191 193 192 -90 91 88 89 92 22 24 21 23 25 20 230 234 231 232 229 233 -97 100 99 98 113 115 114 71 68 69 67 70 116 112 111 110 109 107 106 108 -105 104 103 101 14 19 13 17 15 16 18 166 164 168 -132 134 131 133 26 29 28 31 27 30 32 172 170 173 174 171 169 -137 139 135 136 138 63 65 61 60 66 64 62 186 188 189 187 185 -140 141 142 8 9 11 12 10 57 55 59 58 56 53 54 152 154 153 -157 155 156 95 93 94 96 87 86 81 84 82 85 83 236 239 235 238 237 -177 176 175 178 80 79 78 6 5 3 2 4 1 184 180 182 183 181 179 -244 247 248 246 245 249 0 





OBJ=
1559.545
BEST_KNOWN=
0.000